dataset/large-85.in
50
90.0
0 49 15.82 13.55
1 48 15.86 13.82
2 47 16.32 14.11
3 46 16.64 14.42
4 45 16.94 14.66
5 44 17.37 15.01
6 43 17.73 15.35
7 42 18.13 15.69
8 41 18.56 16.12
9 40 19.04 16.52
10 39 14.75 12.77
11 38 15.34 13.09
12 37 15.52 13.44
13 36 15.97 13.8
14 35 16.47 14.19
15 34 17.11 14.54
16 33 17.4 15.0
17 32 17.92 15.45
18 31 18.28 15.93
19 30 19.1 16.55
20 29 13.38 11.54
21 28 13.79 11.87
22 27 14.52 12.32
23 26 15.03 12.85
24 25 15.62 13.33
25 24 16.04 13.88
26 23 16.56 14.35
27 22 17.58 15.04
28 21 18.16 15.7
29 20 19.01 16.45
30 19 10.57 8.81
31 18 11.04 9.31
32 17 11.74 9.74
33 16 12.16 10.45
34 15 12.95 11.09
35 14 13.78 11.9
36 13 14.94 12.76
37 12 16.14 13.74
38 11 17.27 15.06
39 10 19.21 16.35
40 9 0.95 0.37
41 8 0.95 0.38
42 7 0.94 0.37
43 6 0.94 0.36
44 5 0.96 0.38
45 4 0.93 0.37
46 3 0.95 0.37
47 2 0.91 0.37
48 1 0.99 0.36
